
  15    0


   0   7 2 3 4 5 6 13 14 
   6   2 12 11 
   9   2 10 7 
   4   1 9 
   8   1 8 
   3   1 7 
  10   1 15
   3   1 15
  10   1 15
   9   1 15
   6   1 15
   5   1 15
   1   1 15
   6   1 15
   0   0 
